Data path: /scratch/opt/lxu/CFLG/benchmarks/tree_B
Instance: treeB.350.70
Result path: /scratch/opt/lxu/CFLG/results/tree_B
Solver: Gurobi
Time limit: 7200
Formulation: LEFPAV
Cover: Large
julia --project=. src/main.jl /scratch/opt/lxu/CFLG/benchmarks/tree_B treeB.350.70 /scratch/opt/lxu/CFLG/results/tree_B Gurobi 7200 LEFPAV Large
The latest version of Julia in the `release` channel is 1.11.6+0.x64.linux.gnu. You currently have `1.11.4+0.x64.linux.gnu` installed. Run:

  juliaup update

in your terminal shell to install Julia 1.11.6+0.x64.linux.gnu and update the `release` channel to that version.
/scratch/opt/lxu/CFLG/benchmarks/tree_B Gurobi 7200.0 /scratch/opt/lxu/CFLG/results/tree_B treeB.350.70 LEFPAV Large
/scratch/opt/lxu/CFLG/benchmarks/tree_B/treeB.350.70

 read graph
data loaded

problem_graph/original graph: node: 350/350 edge: 419/419 dlt: 2.9869879733413227 break_avg_len: 1.4934939866706614 break_max_len: 1.9993735655001792Vbar/V, Ebar/E(212, 350, 281, 419)
Set parameter TokenServer to value "solice01.zib.de"
Set parameter Threads to value 1
Set parameter OutputFlag to value 1
Gurobi Optimizer version 12.0.1 build v12.0.1rc0 (linux64 - "Debian GNU/Linux 12 (bookworm)")

CPU model: Intel(R) Xeon(R) Gold 5222 CPU @ 3.80GHz, instruction set [SSE2|AVX|AVX2|AVX512]
Thread count: 8 physical cores, 16 logical processors, using up to 1 threads

Non-default parameters:
Threads  1

Optimize a model with 619 rows, 1032 columns and 1720 nonzeros
Model fingerprint: 0xfa1ef288
Coefficient statistics:
  Matrix range     [1e+00, 1e+00]
  Objective range  [1e+00, 1e+00]
  Bounds range     [1e+00, 1e+00]
  RHS range        [1e+00, 1e+00]
Presolve removed 280 rows and 357 columns
Presolve time: 0.00s
Presolved: 339 rows, 675 columns, 1083 nonzeros

Iteration    Objective       Primal Inf.    Dual Inf.      Time
       0    3.4400000e+02   1.820000e+02   0.000000e+00      0s
     139    2.1200000e+02   0.000000e+00   0.000000e+00      0s

Solved in 139 iterations and 0.00 seconds (0.00 work units)
Optimal objective  2.120000000e+02

User-callback calls 218, time in user-callback 0.00 sec
elapsed CPU time: 0.998052 seconds
Set parameter TokenServer to value "solice01.zib.de"
Set parameter Threads to value 1
Set parameter OutputFlag to value 1
Set parameter MIPGap to value 0.0001
Set parameter TimeLimit to value 7199.001948

 more cuts: false 2.9869879733413227 false
is_attach:trueformulation:LEFPAV0 344 275
Set parameter PreCrush to value 1

 model loaded

Gurobi Optimizer version 12.0.1 build v12.0.1rc0 (linux64 - "Debian GNU/Linux 12 (bookworm)")

CPU model: Intel(R) Xeon(R) Gold 5222 CPU @ 3.80GHz, instruction set [SSE2|AVX|AVX2|AVX512]
Thread count: 8 physical cores, 16 logical processors, using up to 1 threads

Non-default parameters:
TimeLimit  7199.001948
PreCrush  1
Threads  1

Optimize a model with 11875 rows, 6072 columns and 32966 nonzeros
Model fingerprint: 0xc483a9c5
Variable types: 963 continuous, 5109 integer (5109 binary)
Coefficient statistics:
  Matrix range     [1e-06, 6e+00]
  Objective range  [1e+00, 1e+00]
  Bounds range     [4e-02, 3e+00]
  RHS range        [4e-02, 6e+00]
Presolve removed 5260 rows and 2091 columns
Presolve time: 0.22s
Presolved: 6615 rows, 3981 columns, 31433 nonzeros
Variable types: 528 continuous, 3453 integer (3453 binary)
Found heuristic solution: objective 251.0000000
Found heuristic solution: objective 228.0000000

Root relaxation: objective 5.803841e+01, 3693 iterations, 0.14 seconds (0.12 work units)

    Nodes    |    Current Node    |     Objective Bounds      |     Work
 Expl Unexpl |  Obj  Depth IntInf | Incumbent    BestBd   Gap | It/Node Time

     0     0   58.03841    0  297  228.00000   58.03841  74.5%     -    0s
H    0     0                     194.0000000   58.03841  70.1%     -    0s
H    0     0                      84.0000000   58.03841  30.9%     -    0s
H    0     0                      76.0000000   58.03841  23.6%     -    0s
elapsed CPU time: 9.229704098549793e12 seconds
     0     0   58.50000    0  388   76.00000   58.50000  23.0%     -    1s
H    0     0                      75.0000000   58.50000  22.0%     -    1s
elapsed CPU time: 4.607182418800034e12 seconds
     0     0   58.50000    0  347   75.00000   58.50000  22.0%     -    1s
elapsed CPU time: 9.230098131733988e12 seconds
     0     0   59.05824    0  425   75.00000   59.05824  21.3%     -    1s
elapsed CPU time: 9.10474555124042e12 seconds
     0     0   59.10000    0  404   75.00000   59.10000  21.2%     -    1s
elapsed CPU time: 0.015364 seconds
     0     0   59.10000    0  402   75.00000   59.10000  21.2%     -    1s
elapsed CPU time: 9.22228892770712e12 seconds
     0     0   59.12500    0  416   75.00000   59.12500  21.2%     -    1s
elapsed CPU time: 9.21496490895581e12 seconds
     0     0   59.12500    0  420   75.00000   59.12500  21.2%     -    1s
elapsed CPU time: 9.232796268844041e12 seconds
     0     0   59.12500    0  447   75.00000   59.12500  21.2%     -    1s
elapsed CPU time: 0.015311 seconds
     0     0   59.12500    0  416   75.00000   59.12500  21.2%     -    1s
elapsed CPU time: 6.611200209075304e9 seconds
     0     0   59.12500    0  237   75.00000   59.12500  21.2%     -    2s
elapsed CPU time: 9.229643964712258e12 seconds
     0     0   59.12500    0  340   75.00000   59.12500  21.2%     -    2s
elapsed CPU time: 1.844503829738319e13 seconds
     0     0   59.12500    0  303   75.00000   59.12500  21.2%     -    2s
H    0     0                      74.0000000   59.12500  20.1%     -    2s
H    0     0                      70.0000000   59.12500  15.5%     -    2s
H    0     0                      68.0000000   59.12500  13.1%     -    2s
H    0     0                      67.0000000   59.12500  11.8%     -    2s
elapsed CPU time: 1.6111359008123666e13 seconds
     0     0   59.12500    0  377   67.00000   59.12500  11.8%     -    2s
elapsed CPU time: 1.843276196229626e13 seconds
     0     0   59.12500    0  345   67.00000   59.12500  11.8%     -    2s
elapsed CPU time: 9.222313958776521e12 seconds
     0     0   59.12500    0  361   67.00000   59.12500  11.8%     -    3s
elapsed CPU time: 4.615468145153425e12 seconds
     0     0   59.12500    0  365   67.00000   59.12500  11.8%     -    3s
elapsed CPU time: 1.843432452723312e13 seconds
     0     0   59.12500    0  322   67.00000   59.12500  11.8%     -    3s
elapsed CPU time: 1.8443695673426605e13 seconds
elapsed CPU time: 1.383184906187704e13 seconds
     0     2   59.12500    0  343   67.00000   59.12500  11.8%     -    4s
    58    60   63.26875   48  297   67.00000   59.12500  11.8%   124    5s
H  405   292                      66.0000000   59.22499  10.3%  72.0    7s
   565   421   64.72906   97  349   66.00000   60.28860  8.65%  63.9   10s
   588   437   61.00000   10  280   66.00000   61.00000  7.58%   173   15s
   605   449   61.00000    6  281   66.00000   61.00000  7.58%   168   20s
   711   514   61.20818   25  392   66.00000   61.00000  7.58%   250   25s
H  808   516                      65.0000000   61.00000  6.15%   236   28s
   876   548   63.48059   54  145   65.00000   61.00000  6.15%   229   30s
  1072   617   63.26529   59  145   65.00000   61.00000  6.15%   215   35s
H 1304   496                      64.0000000   61.00000  4.69%   200   40s
  1498   559   61.16363   25  410   64.00000   61.00000  4.69%   193   45s
  1767   620   61.01099   26  471   64.00000   61.00000  4.69%   186   50s
  2145   794   62.76719   50  220   64.00000   61.05326  4.60%   177   55s
  2541   956   62.03370   27  446   64.00000   61.10039  4.53%   173   60s
  2932  1136   62.79754   38  255   64.00000   61.16667  4.43%   170   65s
  3182  1262   61.69835   30  223   64.00000   61.21153  4.36%   166   70s
  3706  1534   62.23245   34  367   64.00000   61.25000  4.30%   160   75s
  4213  1739   61.42151   26  298   64.00000   61.30556  4.21%   160   80s
  4849  2012   61.70752   31  363   64.00000   61.37132  4.11%   155   85s
  5506  2252   62.00000   29  321   64.00000   61.47619  3.94%   150   90s
  6114  2459   62.25000   32  306   64.00000   61.50000  3.91%   148   95s
  6644  2635   62.20000   30  322   64.00000   61.50000  3.91%   146  100s
  7190  2801   61.62237   24  413   64.00000   61.51219  3.89%   144  105s
  7801  2986   62.25000   31  389   64.00000   61.54623  3.83%   141  110s
  8338  3138   62.69902   35  251   64.00000   61.56447  3.81%   140  115s
  8789  3262   62.16667   33  329   64.00000   61.58333  3.78%   139  120s
  9142  3366   62.12500   28  313   64.00000   61.60007  3.75%   137  125s
  9698  3530     cutoff   39        64.00000   61.63382  3.70%   136  130s
 10203  3659   62.39623   35  322   64.00000   61.66667  3.65%   135  158s
 10206  3661   62.64725   35  238   64.00000   61.66667  3.65%   135  160s
 10218  3669   62.35073   42  347   64.00000   61.95000  3.20%   135  165s
 10225  3674   62.33333   41  319   64.00000   62.33333  2.60%   135  170s
 10230  3677   62.44694   31  370   64.00000   62.33333  2.60%   135  175s
 10234  3680   62.33333   40  320   64.00000   62.33333  2.60%   135  180s
 10248  3690   62.50000   34  253   64.00000   62.50000  2.34%   141  185s
 10257  3696   62.50000   35  316   64.00000   62.50000  2.34%   141  190s
 10265  3701   62.85244   34  234   64.00000   62.50000  2.34%   141  195s
 10276  3709   62.50000   43  171   64.00000   62.50000  2.34%   142  200s

Cutting planes:
  Learned: 1
  Gomory: 8
  Cover: 31
  Implied bound: 30
  Projected implied bound: 1
  Clique: 30
  MIR: 29
  Mixing: 1
  StrongCG: 1
  Flow cover: 99
  GUB cover: 19
  Zero half: 51
  RLT: 11
  Relax-and-lift: 15
  BQP: 4

Explored 10416 nodes (1562331 simplex iterations) in 202.93 seconds (191.68 work units)
Thread count was 1 (of 16 available processors)

Solution count 10: 64 65 66 ... 74

Optimal solution found (tolerance 1.00e-04)
Best objective 6.400000000000e+01, best bound 6.400000000000e+01, gap 0.0000%

User-callback calls 87942, time in user-callback 1.52 sec

 sepatime1.8661484610502238e14 122375 19
64.0
Stat(MathOptInterface.OPTIMAL, 64.0, 64.0, 0.0, 1.8661484610502238e14, 0.998052, 202.92944884300232, 10416, Main.CFLG.LEFPAV, "", #undef)
